Optimal - objective value 720965422.38433135
      0 C0000000               1                      -0
      1 C0000001               1                      -0
      2 C0000002               1                      -0
      3 C0000003               0                      -0
      4 C0000004               0                      -0
      5 C0000005               0                      -0
      6 C0000006               0                      -0
      7 C0000007               0                      -0
      8 C0000008               0                      -0
      9 C0000009               0                      -0
      0 X0000000               1           7.2096542e+08
      1 X0000001               1              0.94733133
      2 X0000002               0           7.2096542e+08
      3 X0000003               0              0.94733133
      4 X0000004               0           7.2096542e+08
      5 X0000005               0              0.94733133
